c 0.013122320175170898 (encode time in sec)
p cnf 289 659
1 2 3 4 5 6 0
1 2 3 4 -5 7 0
1 2 3 -4 5 7 0
1 2 3 -4 -5 7 0
1 2 -3 4 5 7 0
1 2 -3 4 -5 7 0
1 2 -3 -4 5 7 0
1 2 -3 -4 -5 7 0
1 -2 3 4 5 7 0
1 -2 3 4 -5 7 0
1 -2 3 -4 5 7 0
1 -2 3 -4 -5 7 0
1 -2 -3 4 5 8 0
1 -2 -3 4 -5 6 0
1 -2 -3 -4 5 7 0
1 -2 -3 -4 -5 7 0
-1 2 3 4 5 7 0
-1 2 3 4 -5 0
-1 2 3 -4 5 0
-1 2 3 -4 -5 0
-1 2 -3 4 5 0
-1 2 -3 4 -5 0
-1 2 -3 -4 5 0
-1 2 -3 -4 -5 0
-1 -2 3 4 5 0
-1 -2 3 4 -5 0
-1 -2 3 -4 5 0
-1 -2 3 -4 -5 0
-1 -2 -3 4 5 0
-1 -2 -3 4 -5 0
-1 -2 -3 -4 5 0
-1 -2 -3 -4 -5 0
9 1 2 3 4 5 25 0
9 1 2 3 4 -5 12 0
9 1 2 3 -4 5 10 0
9 1 2 3 -4 -5 13 0
9 1 2 -3 4 5 13 0
9 1 2 -3 4 -5 11 0
9 1 2 -3 -4 5 14 0
9 1 2 -3 -4 -5 15 0
9 1 -2 3 4 5 16 0
9 1 -2 3 4 -5 17 0
9 1 -2 3 -4 5 18 0
9 1 -2 3 -4 -5 19 0
9 1 -2 -3 4 5 24 0
9 1 -2 -3 4 -5 33 0
9 1 -2 -3 -4 5 26 0
9 1 -2 -3 -4 -5 23 0
9 -1 2 3 4 5 20 0
-9 1 2 3 4 5 38 0
-9 1 2 3 4 -5 39 0
-9 1 2 3 -4 5 21 0
-9 1 2 3 -4 -5 32 0
-9 1 2 -3 4 5 32 0
-9 1 2 -3 4 -5 36 0
-9 1 2 -3 -4 5 40 0
-9 1 2 -3 -4 -5 41 0
-9 1 -2 3 4 5 30 0
-9 1 -2 3 4 -5 37 0
-9 1 -2 3 -4 5 34 0
-9 1 -2 3 -4 -5 35 0
-9 1 -2 -3 4 5 31 0
-9 1 -2 -3 4 -5 27 0
-9 1 -2 -3 -4 5 28 0
-9 1 -2 -3 -4 -5 29 0
-9 -1 2 3 4 5 22 0
42 43 44 45 46 9 1 2 3 4 5 129 0
42 43 44 45 46 9 1 2 3 4 -5 223 0
42 43 44 45 46 9 1 2 3 -4 5 101 0
42 43 44 45 46 9 1 2 3 -4 -5 184 0
42 43 44 45 46 9 1 2 -3 4 5 224 0
42 43 44 45 46 9 1 2 -3 4 -5 196 0
42 43 44 45 46 9 1 2 -3 -4 5 102 0
42 43 44 45 46 9 1 2 -3 -4 -5 148 0
42 43 44 45 46 9 1 -2 3 4 5 112 0
42 43 44 45 46 9 1 -2 3 4 -5 197 0
42 43 44 45 46 9 1 -2 3 -4 5 78 0
42 43 44 45 46 9 1 -2 3 -4 -5 271 0
42 43 44 45 46 9 1 -2 -3 4 5 198 0
42 43 44 45 46 9 1 -2 -3 4 -5 185 0
42 43 44 45 46 9 1 -2 -3 -4 5 166 0
42 43 44 45 46 9 1 -2 -3 -4 -5 47 0
42 43 44 45 46 9 -1 2 3 4 5 206 0
42 43 44 45 46 -9 1 2 3 4 5 165 0
42 43 44 45 46 -9 1 2 3 4 -5 77 0
42 43 44 45 46 -9 1 2 3 -4 5 94 0
42 43 44 45 46 -9 1 2 3 -4 -5 89 0
42 43 44 45 46 -9 1 2 -3 4 5 160 0
42 43 44 45 46 -9 1 2 -3 4 -5 79 0
42 43 44 45 46 -9 1 2 -3 -4 5 199 0
42 43 44 45 46 -9 1 2 -3 -4 -5 214 0
42 43 44 45 46 -9 1 -2 3 4 5 186 0
42 43 44 45 46 -9 1 -2 3 4 -5 103 0
42 43 44 45 46 -9 1 -2 3 -4 5 120 0
42 43 44 45 46 -9 1 -2 3 -4 -5 167 0
42 43 44 45 46 -9 1 -2 -3 4 5 79 0
42 43 44 45 46 -9 1 -2 -3 4 -5 55 0
42 43 44 45 46 -9 1 -2 -3 -4 5 113 0
42 43 44 45 46 -9 1 -2 -3 -4 -5 125 0
42 43 44 45 46 -9 -1 2 3 4 5 272 0
42 43 44 45 -46 9 1 2 3 4 5 129 0
42 43 44 45 -46 9 1 2 3 4 -5 223 0
42 43 44 45 -46 9 1 2 3 -4 5 169 0
42 43 44 45 -46 9 1 2 3 -4 -5 122 0
42 43 44 45 -46 9 1 2 -3 4 5 105 0
42 43 44 45 -46 9 1 2 -3 4 -5 226 0
42 43 44 45 -46 9 1 2 -3 -4 5 171 0
42 43 44 45 -46 9 1 2 -3 -4 -5 64 0
42 43 44 45 -46 9 1 -2 3 4 5 112 0
42 43 44 45 -46 9 1 -2 3 4 -5 252 0
42 43 44 45 -46 9 1 -2 3 -4 5 187 0
42 43 44 45 -46 9 1 -2 3 -4 -5 271 0
42 43 44 45 -46 9 1 -2 -3 4 5 170 0
42 43 44 45 -46 9 1 -2 -3 4 -5 130 0
42 43 44 45 -46 9 1 -2 -3 -4 5 166 0
42 43 44 45 -46 9 1 -2 -3 -4 -5 201 0
42 43 44 45 -46 9 -1 2 3 4 5 258 0
42 43 44 45 -46 -9 1 2 3 4 5 236 0
42 43 44 45 -46 -9 1 2 3 4 -5 87 0
42 43 44 45 -46 -9 1 2 3 -4 5 173 0
42 43 44 45 -46 -9 1 2 3 -4 -5 193 0
42 43 44 45 -46 -9 1 2 -3 4 5 100 0
42 43 44 45 -46 -9 1 2 -3 4 -5 253 0
42 43 44 45 -46 -9 1 2 -3 -4 5 199 0
42 43 44 45 -46 -9 1 2 -3 -4 -5 104 0
42 43 44 45 -46 -9 1 -2 3 4 5 186 0
42 43 44 45 -46 -9 1 -2 3 4 -5 48 0
42 43 44 45 -46 -9 1 -2 3 -4 5 114 0
42 43 44 45 -46 -9 1 -2 3 -4 -5 195 0
42 43 44 45 -46 -9 1 -2 -3 4 5 79 0
42 43 44 45 -46 -9 1 -2 -3 4 -5 55 0
42 43 44 45 -46 -9 1 -2 -3 -4 5 200 0
42 43 44 45 -46 -9 1 -2 -3 -4 -5 125 0
42 43 44 45 -46 -9 -1 2 3 4 5 161 0
42 43 44 -45 46 9 1 2 3 4 5 77 0
42 43 44 -45 46 9 1 2 3 4 -5 104 0
42 43 44 -45 46 9 1 2 3 -4 5 101 0
42 43 44 -45 46 9 1 2 3 -4 -5 149 0
42 43 44 -45 46 9 1 2 -3 4 5 172 0
42 43 44 -45 46 9 1 2 -3 4 -5 267 0
42 43 44 -45 46 9 1 2 -3 -4 5 129 0
42 43 44 -45 46 9 1 2 -3 -4 -5 90 0
42 43 44 -45 46 9 1 -2 3 4 5 207 0
42 43 44 -45 46 9 1 -2 3 4 -5 227 0
42 43 44 -45 46 9 1 -2 3 -4 5 62 0
42 43 44 -45 46 9 1 -2 3 -4 -5 284 0
42 43 44 -45 46 9 1 -2 -3 4 5 259 0
42 43 44 -45 46 9 1 -2 -3 4 -5 148 0
42 43 44 -45 46 9 1 -2 -3 -4 5 225 0
42 43 44 -45 46 9 1 -2 -3 -4 -5 63 0
42 43 44 -45 46 9 -1 2 3 4 5 168 0
42 43 44 -45 46 -9 1 2 3 4 5 106 0
42 43 44 -45 46 -9 1 2 3 4 -5 129 0
42 43 44 -45 46 -9 1 2 3 -4 5 194 0
42 43 44 -45 46 -9 1 2 3 -4 -5 100 0
42 43 44 -45 46 -9 1 2 -3 4 5 215 0
42 43 44 -45 46 -9 1 2 -3 4 -5 178 0
42 43 44 -45 46 -9 1 2 -3 -4 5 199 0
42 43 44 -45 46 -9 1 2 -3 -4 -5 214 0
42 43 44 -45 46 -9 1 -2 3 4 5 131 0
42 43 44 -45 46 -9 1 -2 3 4 -5 174 0
42 43 44 -45 46 -9 1 -2 3 -4 5 285 0
42 43 44 -45 46 -9 1 -2 3 -4 -5 195 0
42 43 44 -45 46 -9 1 -2 -3 4 5 79 0
42 43 44 -45 46 -9 1 -2 -3 4 -5 65 0
42 43 44 -45 46 -9 1 -2 -3 -4 5 107 0
42 43 44 -45 46 -9 1 -2 -3 -4 -5 66 0
42 43 44 -45 46 -9 -1 2 3 4 5 272 0
42 43 44 -45 -46 9 1 2 3 4 5 102 0
42 43 44 -45 -46 9 1 2 3 4 -5 223 0
42 43 44 -45 -46 9 1 2 3 -4 5 228 0
42 43 44 -45 -46 9 1 2 3 -4 -5 149 0
42 43 44 -45 -46 9 1 2 -3 4 5 184 0
42 43 44 -45 -46 9 1 2 -3 4 -5 76 0
42 43 44 -45 -46 9 1 2 -3 -4 5 115 0
42 43 44 -45 -46 9 1 2 -3 -4 -5 132 0
42 43 44 -45 -46 9 1 -2 3 4 5 112 0
42 43 44 -45 -46 9 1 -2 3 4 -5 202 0
42 43 44 -45 -46 9 1 -2 3 -4 5 108 0
42 43 44 -45 -46 9 1 -2 3 -4 -5 150 0
42 43 44 -45 -46 9 1 -2 -3 4 5 126 0
42 43 44 -45 -46 9 1 -2 -3 4 -5 192 0
42 43 44 -45 -46 9 1 -2 -3 -4 5 49 0
42 43 44 -45 -46 9 1 -2 -3 -4 -5 242 0
42 43 44 -45 -46 9 -1 2 3 4 5 237 0
42 43 44 -45 -46 -9 1 2 3 4 5 273 0
42 43 44 -45 -46 -9 1 2 3 4 -5 129 0
42 43 44 -45 -46 -9 1 2 3 -4 5 142 0
42 43 44 -45 -46 -9 1 2 3 -4 -5 89 0
42 43 44 -45 -46 -9 1 2 -3 4 5 89 0
42 43 44 -45 -46 -9 1 2 -3 4 -5 79 0
42 43 44 -45 -46 -9 1 2 -3 -4 5 243 0
42 43 44 -45 -46 -9 1 2 -3 -4 -5 104 0
42 43 44 -45 -46 -9 1 -2 3 4 5 229 0
42 43 44 -45 -46 -9 1 -2 3 4 -5 103 0
42 43 44 -45 -46 -9 1 -2 3 -4 5 114 0
42 43 44 -45 -46 -9 1 -2 3 -4 -5 195 0
42 43 44 -45 -46 -9 1 -2 -3 4 5 89 0
42 43 44 -45 -46 -9 1 -2 -3 4 -5 60 0
42 43 44 -45 -46 -9 1 -2 -3 -4 5 200 0
42 43 44 -45 -46 -9 1 -2 -3 -4 -5 218 0
42 43 44 -45 -46 -9 -1 2 3 4 5 272 0
42 43 -44 45 46 9 1 2 3 4 5 129 0
42 43 -44 45 46 9 1 2 3 4 -5 50 0
42 43 -44 45 46 9 1 2 3 -4 5 51 0
42 43 -44 45 46 9 1 2 3 -4 -5 88 0
42 43 -44 45 46 9 1 2 -3 4 5 122 0
42 43 -44 45 46 9 1 2 -3 4 -5 196 0
42 43 -44 45 46 9 1 2 -3 -4 5 151 0
42 43 -44 45 46 9 1 2 -3 -4 -5 132 0
42 43 -44 45 46 9 1 -2 3 4 5 207 0
42 43 -44 45 46 9 1 -2 3 4 -5 208 0
42 43 -44 45 46 9 1 -2 3 -4 5 209 0
42 43 -44 45 46 9 1 -2 3 -4 -5 274 0
42 43 -44 45 46 9 1 -2 -3 4 5 170 0
42 43 -44 45 46 9 1 -2 -3 4 -5 148 0
42 43 -44 45 46 9 1 -2 -3 -4 5 80 0
42 43 -44 45 46 9 1 -2 -3 -4 -5 201 0
42 43 -44 45 46 9 -1 2 3 4 5 254 0
42 43 -44 45 46 -9 1 2 3 4 5 127 0
42 43 -44 45 46 -9 1 2 3 4 -5 87 0
42 43 -44 45 46 -9 1 2 3 -4 5 194 0
42 43 -44 45 46 -9 1 2 3 -4 -5 215 0
42 43 -44 45 46 -9 1 2 -3 4 5 160 0
42 43 -44 45 46 -9 1 2 -3 4 -5 253 0
42 43 -44 45 46 -9 1 2 -3 -4 5 72 0
42 43 -44 45 46 -9 1 2 -3 -4 -5 143 0
42 43 -44 45 46 -9 1 -2 3 4 5 186 0
42 43 -44 45 46 -9 1 -2 3 4 -5 95 0
42 43 -44 45 46 -9 1 -2 3 -4 5 285 0
42 43 -44 45 46 -9 1 -2 3 -4 -5 109 0
42 43 -44 45 46 -9 1 -2 -3 4 5 79 0
42 43 -44 45 46 -9 1 -2 -3 4 -5 67 0
42 43 -44 45 46 -9 1 -2 -3 -4 5 107 0
42 43 -44 45 46 -9 1 -2 -3 -4 -5 218 0
42 43 -44 45 46 -9 -1 2 3 4 5 161 0
42 43 -44 45 -46 9 1 2 3 4 5 129 0
42 43 -44 45 -46 9 1 2 3 4 -5 126 0
42 43 -44 45 -46 9 1 2 3 -4 5 169 0
42 43 -44 45 -46 9 1 2 3 -4 -5 210 0
42 43 -44 45 -46 9 1 2 -3 4 5 172 0
42 43 -44 45 -46 9 1 2 -3 4 -5 211 0
42 43 -44 45 -46 9 1 2 -3 -4 5 77 0
42 43 -44 45 -46 9 1 2 -3 -4 -5 132 0
42 43 -44 45 -46 9 1 -2 3 4 5 52 0
42 43 -44 45 -46 9 1 -2 3 4 -5 202 0
42 43 -44 45 -46 9 1 -2 3 -4 5 78 0
42 43 -44 45 -46 9 1 -2 3 -4 -5 162 0
42 43 -44 45 -46 9 1 -2 -3 4 5 259 0
42 43 -44 45 -46 9 1 -2 -3 4 -5 230 0
42 43 -44 45 -46 9 1 -2 -3 -4 5 225 0
42 43 -44 45 -46 9 1 -2 -3 -4 -5 97 0
42 43 -44 45 -46 9 -1 2 3 4 5 187 0
42 43 -44 45 -46 -9 1 2 3 4 5 236 0
42 43 -44 45 -46 -9 1 2 3 4 -5 87 0
42 43 -44 45 -46 -9 1 2 3 -4 5 219 0
42 43 -44 45 -46 -9 1 2 3 -4 -5 89 0
42 43 -44 45 -46 -9 1 2 -3 4 5 144 0
42 43 -44 45 -46 -9 1 2 -3 4 -5 178 0
42 43 -44 45 -46 -9 1 2 -3 -4 5 199 0
42 43 -44 45 -46 -9 1 2 -3 -4 -5 188 0
42 43 -44 45 -46 -9 1 -2 3 4 5 131 0
42 43 -44 45 -46 -9 1 -2 3 4 -5 231 0
42 43 -44 45 -46 -9 1 -2 3 -4 5 110 0
42 43 -44 45 -46 -9 1 -2 3 -4 -5 167 0
42 43 -44 45 -46 -9 1 -2 -3 4 5 89 0
42 43 -44 45 -46 -9 1 -2 -3 4 -5 55 0
42 43 -44 45 -46 -9 1 -2 -3 -4 5 107 0
42 43 -44 45 -46 -9 1 -2 -3 -4 -5 125 0
42 43 -44 45 -46 -9 -1 2 3 4 5 152 0
42 43 -44 -45 46 9 1 2 3 4 5 56 0
42 43 -44 -45 46 9 1 2 3 4 -5 232 0
42 43 -44 -45 46 9 1 2 3 -4 5 101 0
42 43 -44 -45 46 9 1 2 3 -4 -5 122 0
42 43 -44 -45 46 9 1 2 -3 4 5 122 0
42 43 -44 -45 46 9 1 2 -3 4 -5 211 0
42 43 -44 -45 46 9 1 2 -3 -4 5 102 0
42 43 -44 -45 46 9 1 2 -3 -4 -5 148 0
42 43 -44 -45 46 9 1 -2 3 4 5 207 0
42 43 -44 -45 46 9 1 -2 3 4 -5 227 0
42 43 -44 -45 46 9 1 -2 3 -4 5 133 0
42 43 -44 -45 46 9 1 -2 3 -4 -5 162 0
42 43 -44 -45 46 9 1 -2 -3 4 5 259 0
42 43 -44 -45 46 9 1 -2 -3 4 -5 116 0
42 43 -44 -45 46 9 1 -2 -3 -4 5 225 0
42 43 -44 -45 46 9 1 -2 -3 -4 -5 145 0
42 43 -44 -45 46 9 -1 2 3 4 5 176 0
42 43 -44 -45 46 -9 1 2 3 4 5 183 0
42 43 -44 -45 46 -9 1 2 3 4 -5 98 0
42 43 -44 -45 46 -9 1 2 3 -4 5 173 0
42 43 -44 -45 46 -9 1 2 3 -4 -5 100 0
42 43 -44 -45 46 -9 1 2 -3 4 5 193 0
42 43 -44 -45 46 -9 1 2 -3 4 -5 79 0
42 43 -44 -45 46 -9 1 2 -3 -4 5 199 0
42 43 -44 -45 46 -9 1 2 -3 -4 -5 134 0
42 43 -44 -45 46 -9 1 -2 3 4 5 272 0
42 43 -44 -45 46 -9 1 -2 3 4 -5 48 0
42 43 -44 -45 46 -9 1 -2 3 -4 5 285 0
42 43 -44 -45 46 -9 1 -2 3 -4 -5 81 0
42 43 -44 -45 46 -9 1 -2 -3 4 5 89 0
42 43 -44 -45 46 -9 1 -2 -3 4 -5 55 0
42 43 -44 -45 46 -9 1 -2 -3 -4 5 113 0
42 43 -44 -45 46 -9 1 -2 -3 -4 -5 66 0
42 43 -44 -45 46 -9 -1 2 3 4 5 161 0
42 43 -44 -45 -46 9 1 2 3 4 5 102 0
42 43 -44 -45 -46 9 1 2 3 4 -5 223 0
42 43 -44 -45 -46 9 1 2 3 -4 5 111 0
42 43 -44 -45 -46 9 1 2 3 -4 -5 122 0
42 43 -44 -45 -46 9 1 2 -3 4 5 105 0
42 43 -44 -45 -46 9 1 2 -3 4 -5 226 0
42 43 -44 -45 -46 9 1 2 -3 -4 5 91 0
42 43 -44 -45 -46 9 1 2 -3 -4 -5 220 0
42 43 -44 -45 -46 9 1 -2 3 4 5 52 0
42 43 -44 -45 -46 9 1 -2 3 4 -5 260 0
42 43 -44 -45 -46 9 1 -2 3 -4 5 209 0
42 43 -44 -45 -46 9 1 -2 3 -4 -5 286 0
42 43 -44 -45 -46 9 1 -2 -3 4 5 259 0
42 43 -44 -45 -46 9 1 -2 -3 4 -5 192 0
42 43 -44 -45 -46 9 1 -2 -3 -4 5 266 0
42 43 -44 -45 -46 9 1 -2 -3 -4 -5 201 0
42 43 -44 -45 -46 9 -1 2 3 4 5 168 0
42 43 -44 -45 -46 -9 1 2 3 4 5 117 0
42 43 -44 -45 -46 -9 1 2 3 4 -5 102 0
42 43 -44 -45 -46 -9 1 2 3 -4 5 53 0
42 43 -44 -45 -46 -9 1 2 3 -4 -5 89 0
42 43 -44 -45 -46 -9 1 2 -3 4 5 193 0
42 43 -44 -45 -46 -9 1 2 -3 4 -5 178 0
42 43 -44 -45 -46 -9 1 2 -3 -4 5 221 0
42 43 -44 -45 -46 -9 1 2 -3 -4 -5 104 0
42 43 -44 -45 -46 -9 1 -2 3 4 5 186 0
42 43 -44 -45 -46 -9 1 -2 3 4 -5 231 0
42 43 -44 -45 -46 -9 1 -2 3 -4 5 114 0
42 43 -44 -45 -46 -9 1 -2 3 -4 -5 261 0
42 43 -44 -45 -46 -9 1 -2 -3 4 5 118 0
42 43 -44 -45 -46 -9 1 -2 -3 4 -5 55 0
42 43 -44 -45 -46 -9 1 -2 -3 -4 5 200 0
42 43 -44 -45 -46 -9 1 -2 -3 -4 -5 218 0
42 43 -44 -45 -46 -9 -1 2 3 4 5 272 0
42 -43 44 45 46 9 1 2 3 4 5 77 0
42 -43 44 45 46 9 1 2 3 4 -5 126 0
42 -43 44 45 46 9 1 2 3 -4 5 228 0
42 -43 44 45 46 9 1 2 3 -4 -5 172 0
42 -43 44 45 46 9 1 2 -3 4 5 88 0
42 -43 44 45 46 9 1 2 -3 4 -5 211 0
42 -43 44 45 46 9 1 2 -3 -4 5 102 0
42 -43 44 45 46 9 1 2 -3 -4 -5 179 0
42 -43 44 45 46 9 1 -2 3 4 5 112 0
42 -43 44 45 46 9 1 -2 3 4 -5 208 0
42 -43 44 45 46 9 1 -2 3 -4 5 209 0
42 -43 44 45 46 9 1 -2 3 -4 -5 153 0
42 -43 44 45 46 9 1 -2 -3 4 5 104 0
42 -43 44 45 46 9 1 -2 -3 4 -5 130 0
42 -43 44 45 46 9 1 -2 -3 -4 5 238 0
42 -43 44 45 46 9 1 -2 -3 -4 -5 47 0
42 -43 44 45 46 9 -1 2 3 4 5 168 0
42 -43 44 45 46 -9 1 2 3 4 5 73 0
42 -43 44 45 46 -9 1 2 3 4 -5 87 0
42 -43 44 45 46 -9 1 2 3 -4 5 173 0
42 -43 44 45 46 -9 1 2 3 -4 -5 275 0
42 -43 44 45 46 -9 1 2 -3 4 5 262 0
42 -43 44 45 46 -9 1 2 -3 4 -5 178 0
42 -43 44 45 46 -9 1 2 -3 -4 5 221 0
42 -43 44 45 46 -9 1 2 -3 -4 -5 82 0
42 -43 44 45 46 -9 1 -2 3 4 5 272 0
42 -43 44 45 46 -9 1 -2 3 4 -5 174 0
42 -43 44 45 46 -9 1 -2 3 -4 5 203 0
42 -43 44 45 46 -9 1 -2 3 -4 -5 167 0
42 -43 44 45 46 -9 1 -2 -3 4 5 89 0
42 -43 44 45 46 -9 1 -2 -3 4 -5 65 0
42 -43 44 45 46 -9 1 -2 -3 -4 5 113 0
42 -43 44 45 46 -9 1 -2 -3 -4 -5 66 0
42 -43 44 45 46 -9 -1 2 3 4 5 161 0
42 -43 44 45 -46 9 1 2 3 4 5 77 0
42 -43 44 45 -46 9 1 2 3 4 -5 104 0
42 -43 44 45 -46 9 1 2 3 -4 5 175 0
42 -43 44 45 -46 9 1 2 3 -4 -5 122 0
42 -43 44 45 -46 9 1 2 -3 4 5 105 0
42 -43 44 45 -46 9 1 2 -3 4 -5 244 0
42 -43 44 45 -46 9 1 2 -3 -4 5 99 0
42 -43 44 45 -46 9 1 2 -3 -4 -5 179 0
42 -43 44 45 -46 9 1 -2 3 4 5 52 0
42 -43 44 45 -46 9 1 -2 3 4 -5 197 0
42 -43 44 45 -46 9 1 -2 3 -4 5 108 0
42 -43 44 45 -46 9 1 -2 3 -4 -5 288 0
42 -43 44 45 -46 9 1 -2 -3 4 5 83 0
42 -43 44 45 -46 9 1 -2 -3 4 -5 230 0
42 -43 44 45 -46 9 1 -2 -3 -4 5 238 0
42 -43 44 45 -46 9 1 -2 -3 -4 -5 154 0
42 -43 44 45 -46 9 -1 2 3 4 5 187 0
42 -43 44 45 -46 -9 1 2 3 4 5 127 0
42 -43 44 45 -46 -9 1 2 3 4 -5 129 0
42 -43 44 45 -46 -9 1 2 3 -4 5 194 0
42 -43 44 45 -46 -9 1 2 3 -4 -5 262 0
42 -43 44 45 -46 -9 1 2 -3 4 5 160 0
42 -43 44 45 -46 -9 1 2 -3 4 -5 135 0
42 -43 44 45 -46 -9 1 2 -3 -4 5 135 0
42 -43 44 45 -46 -9 1 2 -3 -4 -5 256 0
42 -43 44 45 -46 -9 1 -2 3 4 5 84 0
42 -43 44 45 -46 -9 1 -2 3 4 -5 231 0
42 -43 44 45 -46 -9 1 -2 3 -4 5 285 0
42 -43 44 45 -46 -9 1 -2 3 -4 -5 109 0
42 -43 44 45 -46 -9 1 -2 -3 4 5 54 0
42 -43 44 45 -46 -9 1 -2 -3 4 -5 65 0
42 -43 44 45 -46 -9 1 -2 -3 -4 5 189 0
42 -43 44 45 -46 -9 1 -2 -3 -4 -5 155 0
42 -43 44 45 -46 -9 -1 2 3 4 5 161 0
42 -43 44 -45 46 9 1 2 3 4 5 102 0
42 -43 44 -45 46 9 1 2 3 4 -5 126 0
42 -43 44 -45 46 9 1 2 3 -4 5 169 0
42 -43 44 -45 46 9 1 2 3 -4 -5 172 0
42 -43 44 -45 46 9 1 2 -3 4 5 149 0
42 -43 44 -45 46 9 1 2 -3 4 -5 267 0
42 -43 44 -45 46 9 1 2 -3 -4 5 102 0
42 -43 44 -45 46 9 1 2 -3 -4 -5 179 0
42 -43 44 -45 46 9 1 -2 3 4 5 123 0
42 -43 44 -45 46 9 1 -2 3 4 -5 245 0
42 -43 44 -45 46 9 1 -2 3 -4 5 108 0
42 -43 44 -45 46 9 1 -2 3 -4 -5 271 0
42 -43 44 -45 46 9 1 -2 -3 4 5 50 0
42 -43 44 -45 46 9 1 -2 -3 4 -5 92 0
42 -43 44 -45 46 9 1 -2 -3 -4 5 166 0
42 -43 44 -45 46 9 1 -2 -3 -4 -5 145 0
42 -43 44 -45 46 9 -1 2 3 4 5 222 0
42 -43 44 -45 46 -9 1 2 3 4 5 165 0
42 -43 44 -45 46 -9 1 2 3 4 -5 74 0
42 -43 44 -45 46 -9 1 2 3 -4 5 119 0
42 -43 44 -45 46 -9 1 2 3 -4 -5 85 0
42 -43 44 -45 46 -9 1 2 -3 4 5 275 0
42 -43 44 -45 46 -9 1 2 -3 4 -5 253 0
42 -43 44 -45 46 -9 1 2 -3 -4 5 89 0
42 -43 44 -45 46 -9 1 2 -3 -4 -5 276 0
42 -43 44 -45 46 -9 1 -2 3 4 5 272 0
42 -43 44 -45 46 -9 1 -2 3 4 -5 128 0
42 -43 44 -45 46 -9 1 -2 3 -4 5 110 0
42 -43 44 -45 46 -9 1 -2 3 -4 -5 241 0
42 -43 44 -45 46 -9 1 -2 -3 4 5 118 0
42 -43 44 -45 46 -9 1 -2 -3 4 -5 60 0
42 -43 44 -45 46 -9 1 -2 -3 -4 5 200 0
42 -43 44 -45 46 -9 1 -2 -3 -4 -5 218 0
42 -43 44 -45 46 -9 -1 2 3 4 5 161 0
42 -43 44 -45 -46 9 1 2 3 4 5 77 0
42 -43 44 -45 -46 9 1 2 3 4 -5 50 0
42 -43 44 -45 -46 9 1 2 3 -4 5 175 0
42 -43 44 -45 -46 9 1 2 3 -4 -5 149 0
42 -43 44 -45 -46 9 1 2 -3 4 5 210 0
42 -43 44 -45 -46 9 1 2 -3 4 -5 212 0
42 -43 44 -45 -46 9 1 2 -3 -4 5 99 0
42 -43 44 -45 -46 9 1 2 -3 -4 -5 220 0
42 -43 44 -45 -46 9 1 -2 3 4 5 57 0
42 -43 44 -45 -46 9 1 -2 3 4 -5 269 0
42 -43 44 -45 -46 9 1 -2 3 -4 5 209 0
42 -43 44 -45 -46 9 1 -2 3 -4 -5 156 0
42 -43 44 -45 -46 9 1 -2 -3 4 5 58 0
42 -43 44 -45 -46 9 1 -2 -3 4 -5 92 0
42 -43 44 -45 -46 9 1 -2 -3 -4 5 238 0
42 -43 44 -45 -46 9 1 -2 -3 -4 -5 201 0
42 -43 44 -45 -46 9 -1 2 3 4 5 258 0
42 -43 44 -45 -46 -9 1 2 3 4 5 73 0
42 -43 44 -45 -46 -9 1 2 3 4 -5 98 0
42 -43 44 -45 -46 -9 1 2 3 -4 5 246 0
42 -43 44 -45 -46 -9 1 2 3 -4 -5 89 0
42 -43 44 -45 -46 -9 1 2 -3 4 5 68 0
42 -43 44 -45 -46 -9 1 2 -3 4 -5 253 0
42 -43 44 -45 -46 -9 1 2 -3 -4 5 199 0
42 -43 44 -45 -46 -9 1 2 -3 -4 -5 104 0
42 -43 44 -45 -46 -9 1 -2 3 4 5 84 0
42 -43 44 -45 -46 -9 1 -2 3 4 -5 103 0
42 -43 44 -45 -46 -9 1 -2 3 -4 5 277 0
42 -43 44 -45 -46 -9 1 -2 3 -4 -5 81 0
42 -43 44 -45 -46 -9 1 -2 -3 4 5 135 0
42 -43 44 -45 -46 -9 1 -2 -3 4 -5 67 0
42 -43 44 -45 -46 -9 1 -2 -3 -4 5 200 0
42 -43 44 -45 -46 -9 1 -2 -3 -4 -5 218 0
42 -43 44 -45 -46 -9 -1 2 3 4 5 152 0
42 -43 -44 45 46 9 1 2 3 4 5 77 0
42 -43 -44 45 46 9 1 2 3 4 -5 205 0
42 -43 -44 45 46 9 1 2 3 -4 5 233 0
42 -43 -44 45 46 9 1 2 3 -4 -5 122 0
42 -43 -44 45 46 9 1 2 -3 4 5 88 0
42 -43 -44 45 46 9 1 2 -3 4 -5 244 0
42 -43 -44 45 46 9 1 2 -3 -4 5 115 0
42 -43 -44 45 46 9 1 2 -3 -4 -5 247 0
42 -43 -44 45 46 9 1 -2 3 4 5 207 0
42 -43 -44 45 46 9 1 -2 3 4 -5 245 0
42 -43 -44 45 46 9 1 -2 3 -4 5 237 0
42 -43 -44 45 46 9 1 -2 3 -4 -5 163 0
42 -43 -44 45 46 9 1 -2 -3 4 5 136 0
42 -43 -44 45 46 9 1 -2 -3 4 -5 185 0
42 -43 -44 45 46 9 1 -2 -3 -4 5 225 0
42 -43 -44 45 46 9 1 -2 -3 -4 -5 47 0
42 -43 -44 45 46 9 -1 2 3 4 5 222 0
42 -43 -44 45 46 -9 1 2 3 4 5 127 0
42 -43 -44 45 46 -9 1 2 3 4 -5 87 0
42 -43 -44 45 46 -9 1 2 3 -4 5 157 0
42 -43 -44 45 46 -9 1 2 3 -4 -5 262 0
42 -43 -44 45 46 -9 1 2 -3 4 5 193 0
42 -43 -44 45 46 -9 1 2 -3 4 -5 135 0
42 -43 -44 45 46 -9 1 2 -3 -4 5 221 0
42 -43 -44 45 46 -9 1 2 -3 -4 -5 134 0
42 -43 -44 45 46 -9 1 -2 3 4 5 121 0
42 -43 -44 45 46 -9 1 -2 3 4 -5 190 0
42 -43 -44 45 46 -9 1 -2 3 -4 5 203 0
42 -43 -44 45 46 -9 1 -2 3 -4 -5 109 0
42 -43 -44 45 46 -9 1 -2 -3 4 5 135 0
42 -43 -44 45 46 -9 1 -2 -3 4 -5 65 0
42 -43 -44 45 46 -9 1 -2 -3 -4 5 200 0
42 -43 -44 45 46 -9 1 -2 -3 -4 -5 248 0
42 -43 -44 45 46 -9 -1 2 3 4 5 272 0
42 -43 -44 45 -46 9 1 2 3 4 5 77 0
42 -43 -44 45 -46 9 1 2 3 4 -5 50 0
42 -43 -44 45 -46 9 1 2 3 -4 5 175 0
42 -43 -44 45 -46 9 1 2 3 -4 -5 88 0
42 -43 -44 45 -46 9 1 2 -3 4 5 105 0
42 -43 -44 45 -46 9 1 2 -3 4 -5 244 0
42 -43 -44 45 -46 9 1 2 -3 -4 5 77 0
42 -43 -44 45 -46 9 1 2 -3 -4 -5 179 0
42 -43 -44 45 -46 9 1 -2 3 4 5 204 0
42 -43 -44 45 -46 9 1 -2 3 4 -5 245 0
42 -43 -44 45 -46 9 1 -2 3 -4 5 237 0
42 -43 -44 45 -46 9 1 -2 3 -4 -5 284 0
42 -43 -44 45 -46 9 1 -2 -3 4 5 58 0
42 -43 -44 45 -46 9 1 -2 -3 4 -5 130 0
42 -43 -44 45 -46 9 1 -2 -3 -4 5 49 0
42 -43 -44 45 -46 9 1 -2 -3 -4 -5 97 0
42 -43 -44 45 -46 9 -1 2 3 4 5 228 0
42 -43 -44 45 -46 -9 1 2 3 4 5 127 0
42 -43 -44 45 -46 -9 1 2 3 4 -5 87 0
42 -43 -44 45 -46 -9 1 2 3 -4 5 246 0
42 -43 -44 45 -46 -9 1 2 3 -4 -5 135 0
42 -43 -44 45 -46 -9 1 2 -3 4 5 249 0
42 -43 -44 45 -46 -9 1 2 -3 4 -5 278 0
42 -43 -44 45 -46 -9 1 2 -3 -4 5 199 0
42 -43 -44 45 -46 -9 1 2 -3 -4 -5 276 0
42 -43 -44 45 -46 -9 1 -2 3 4 5 229 0
42 -43 -44 45 -46 -9 1 -2 3 4 -5 111 0
42 -43 -44 45 -46 -9 1 -2 3 -4 5 277 0
42 -43 -44 45 -46 -9 1 -2 3 -4 -5 59 0
42 -43 -44 45 -46 -9 1 -2 -3 4 5 135 0
42 -43 -44 45 -46 -9 1 -2 -3 4 -5 65 0
42 -43 -44 45 -46 -9 1 -2 -3 -4 5 272 0
42 -43 -44 45 -46 -9 1 -2 -3 -4 -5 66 0
42 -43 -44 45 -46 -9 -1 2 3 4 5 152 0
42 -43 -44 -45 46 9 1 2 3 4 5 77 0
42 -43 -44 -45 46 9 1 2 3 4 -5 104 0
42 -43 -44 -45 46 9 1 2 3 -4 5 228 0
42 -43 -44 -45 46 9 1 2 3 -4 -5 88 0
42 -43 -44 -45 46 9 1 2 -3 4 5 122 0
42 -43 -44 -45 46 9 1 2 -3 4 -5 255 0
42 -43 -44 -45 46 9 1 2 -3 -4 5 75 0
42 -43 -44 -45 46 9 1 2 -3 -4 -5 220 0
42 -43 -44 -45 46 9 1 -2 3 4 5 123 0
42 -43 -44 -45 46 9 1 -2 3 4 -5 252 0
42 -43 -44 -45 46 9 1 -2 3 -4 5 237 0
42 -43 -44 -45 46 9 1 -2 3 -4 -5 162 0
42 -43 -44 -45 46 9 1 -2 -3 4 5 126 0
42 -43 -44 -45 46 9 1 -2 -3 4 -5 213 0
42 -43 -44 -45 46 9 1 -2 -3 -4 5 263 0
42 -43 -44 -45 46 9 1 -2 -3 -4 -5 191 0
42 -43 -44 -45 46 9 -1 2 3 4 5 187 0
42 -43 -44 -45 46 -9 1 2 3 4 5 273 0
42 -43 -44 -45 46 -9 1 2 3 4 -5 102 0
42 -43 -44 -45 46 -9 1 2 3 -4 5 182 0
42 -43 -44 -45 46 -9 1 2 3 -4 -5 202 0
42 -43 -44 -45 46 -9 1 2 -3 4 5 135 0
42 -43 -44 -45 46 -9 1 2 -3 4 -5 253 0
42 -43 -44 -45 46 -9 1 2 -3 -4 5 287 0
42 -43 -44 -45 46 -9 1 2 -3 -4 -5 143 0
42 -43 -44 -45 46 -9 1 -2 3 4 5 272 0
42 -43 -44 -45 46 -9 1 -2 3 4 -5 48 0
42 -43 -44 -45 46 -9 1 -2 3 -4 5 277 0
42 -43 -44 -45 46 -9 1 -2 3 -4 -5 137 0
42 -43 -44 -45 46 -9 1 -2 -3 4 5 234 0
42 -43 -44 -45 46 -9 1 -2 -3 4 -5 86 0
42 -43 -44 -45 46 -9 1 -2 -3 -4 5 107 0
42 -43 -44 -45 46 -9 1 -2 -3 -4 -5 239 0
42 -43 -44 -45 46 -9 -1 2 3 4 5 161 0
42 -43 -44 -45 -46 9 1 2 3 4 5 77 0
42 -43 -44 -45 -46 9 1 2 3 4 -5 205 0
42 -43 -44 -45 -46 9 1 2 3 -4 5 175 0
42 -43 -44 -45 -46 9 1 2 3 -4 -5 88 0
42 -43 -44 -45 -46 9 1 2 -3 4 5 71 0
42 -43 -44 -45 -46 9 1 2 -3 4 -5 279 0
42 -43 -44 -45 -46 9 1 2 -3 -4 5 75 0
42 -43 -44 -45 -46 9 1 2 -3 -4 -5 247 0
42 -43 -44 -45 -46 9 1 -2 3 4 5 57 0
42 -43 -44 -45 -46 9 1 -2 3 4 -5 260 0
42 -43 -44 -45 -46 9 1 -2 3 -4 5 124 0
42 -43 -44 -45 -46 9 1 -2 3 -4 -5 163 0
42 -43 -44 -45 -46 9 1 -2 -3 4 5 205 0
42 -43 -44 -45 -46 9 1 -2 -3 4 -5 230 0
42 -43 -44 -45 -46 9 1 -2 -3 -4 5 235 0
42 -43 -44 -45 -46 9 1 -2 -3 -4 -5 240 0
42 -43 -44 -45 -46 9 -1 2 3 4 5 270 0
42 -43 -44 -45 -46 -9 1 2 3 4 5 264 0
42 -43 -44 -45 -46 -9 1 2 3 4 -5 129 0
42 -43 -44 -45 -46 -9 1 2 3 -4 5 182 0
42 -43 -44 -45 -46 -9 1 2 3 -4 -5 249 0
42 -43 -44 -45 -46 -9 1 2 -3 4 5 262 0
42 -43 -44 -45 -46 -9 1 2 -3 4 -5 69 0
42 -43 -44 -45 -46 -9 1 2 -3 -4 5 280 0
42 -43 -44 -45 -46 -9 1 2 -3 -4 -5 159 0
42 -43 -44 -45 -46 -9 1 -2 3 4 5 289 0
42 -43 -44 -45 -46 -9 1 -2 3 4 -5 95 0
42 -43 -44 -45 -46 -9 1 -2 3 -4 5 281 0
42 -43 -44 -45 -46 -9 1 -2 3 -4 -5 146 0
42 -43 -44 -45 -46 -9 1 -2 -3 4 5 79 0
42 -43 -44 -45 -46 -9 1 -2 -3 4 -5 93 0
42 -43 -44 -45 -46 -9 1 -2 -3 -4 5 250 0
42 -43 -44 -45 -46 -9 1 -2 -3 -4 -5 248 0
42 -43 -44 -45 -46 -9 -1 2 3 4 5 138 0
-42 43 44 45 46 9 1 2 3 4 5 77 0
-42 43 44 45 46 9 1 2 3 4 -5 205 0
-42 43 44 45 46 9 1 2 3 -4 5 233 0
-42 43 44 45 46 9 1 2 3 -4 -5 71 0
-42 43 44 45 46 9 1 2 -3 4 5 71 0
-42 43 44 45 46 9 1 2 -3 4 -5 279 0
-42 43 44 45 46 9 1 2 -3 -4 5 61 0
-42 43 44 45 46 9 1 2 -3 -4 -5 268 0
-42 43 44 45 46 9 1 -2 3 4 5 204 0
-42 43 44 45 46 9 1 -2 3 4 -5 282 0
-42 43 44 45 46 9 1 -2 3 -4 5 158 0
-42 43 44 45 46 9 1 -2 3 -4 -5 164 0
-42 43 44 45 46 9 1 -2 -3 4 5 265 0
-42 43 44 45 46 9 1 -2 -3 4 -5 216 0
-42 43 44 45 46 9 1 -2 -3 -4 5 139 0
-42 43 44 45 46 9 1 -2 -3 -4 -5 141 0
-42 43 44 45 46 9 -1 2 3 4 5 283 0
-42 43 44 45 46 -9 1 2 3 4 5 180 0
-42 43 44 45 46 -9 1 2 3 4 -5 257 0
-42 43 44 45 46 -9 1 2 3 -4 5 173 0
-42 43 44 45 46 -9 1 2 3 -4 -5 202 0
-42 43 44 45 46 -9 1 2 -3 4 5 68 0
-42 43 44 45 46 -9 1 2 -3 4 -5 177 0
-42 43 44 45 46 -9 1 2 -3 -4 5 181 0
-42 43 44 45 46 -9 1 2 -3 -4 -5 251 0
-42 43 44 45 46 -9 1 -2 3 4 5 70 0
-42 43 44 45 46 -9 1 -2 3 4 -5 147 0
-42 43 44 45 46 -9 1 -2 3 -4 5 217 0
-42 43 44 45 46 -9 1 -2 3 -4 -5 96 0
-42 43 44 45 46 -9 1 -2 -3 4 5 118 0
-42 43 44 45 46 -9 1 -2 -3 4 -5 140 0
-42 43 44 45 46 -9 1 -2 -3 -4 5 189 0
-42 43 44 45 46 -9 1 -2 -3 -4 -5 125 0
-42 43 44 45 46 -9 -1 2 3 4 5 152 0
-42 43 44 45 -46 0
-42 43 44 -45 46 0
-42 43 44 -45 -46 0
-42 43 -44 45 46 0
-42 43 -44 45 -46 0
-42 43 -44 -45 46 0
-42 43 -44 -45 -46 0
-42 -43 44 45 46 0
-42 -43 44 45 -46 0
-42 -43 44 -45 46 0
-42 -43 44 -45 -46 0
-42 -43 -44 45 46 0
-42 -43 -44 45 -46 0
-42 -43 -44 -45 46 0
-42 -43 -44 -45 -46 0
